letting initialStacks = [39, 4, 13, 38, 40, 25, 17, 34, 21, 29, 41, 31, 5, 23, 15, 36, 7, 11, 1, 16, 35, 26, 10, 9, 43, 44, 19, 6, 45, 8, 42, 24, 22, 2, 3, 27, 14, 33, 37, 46, 20, 18, 48, 50, 12, 49, 32, 51, 28, 30, 47]
